
Gurobi 6.0.4 (win64) logging started 06/18/15 17:42:03

Read LP format model from file E:\Eigene Dateien\Downloads\Michi shit\VRPTWMS2\instances\mip\fuel\N8-C_DV100-C_SV25_F5_5_No_1.lp
Reading time = 0.00 seconds
(null): 417 rows, 200 columns, 1659 nonzeros
Optimize a model with 417 rows, 200 columns and 1659 nonzeros
Model has 512 quadratic constraints
Coefficient statistics:
  Matrix range    [1e+00, 1e+06]
  Objective range [2e+04, 1e+07]
  Bounds range    [1e+00, 1e+06]
  RHS range       [1e+00, 1e+06]
Presolve removed 56 rows and 34 columns
Presolve time: 0.03s
Presolved: 1121 rows, 546 columns, 5764 nonzeros
Variable types: 380 continuous, 166 integer (132 binary)
Found heuristic solution: objective 8.339160e+07

Root relaxation: objective 1.274212e+07, 110 iterations, 0.00 seconds

    Nodes    |    Current Node    |     Objective Bounds      |     Work
 Expl Unexpl |  Obj  Depth IntInf | Incumbent    BestBd   Gap | It/Node Time

     0     0 1.2742e+07    0   35 8.3392e+07 1.2742e+07  84.7%     -    0s
     0     0 1.5234e+07    0   40 8.3392e+07 1.5234e+07  81.7%     -    0s
H    0     0                    7.318880e+07 1.5234e+07  79.2%     -    0s
H    0     0                    4.256050e+07 1.5234e+07  64.2%     -    0s
     0     0 2.2046e+07    0   16 4.2561e+07 2.2046e+07  48.2%     -    0s
     0     0 2.3089e+07    0   30 4.2561e+07 2.3089e+07  45.8%     -    0s
     0     0 2.3599e+07    0   27 4.2561e+07 2.3599e+07  44.6%     -    0s
     0     0 2.3639e+07    0   26 4.2561e+07 2.3639e+07  44.5%     -    0s
     0     0 2.3639e+07    0   26 4.2561e+07 2.3639e+07  44.5%     -    0s
     0     2 2.3639e+07    0   26 4.2561e+07 2.3639e+07  44.5%     -    0s
*    5     4               4    3.195110e+07 2.3725e+07  25.7%   9.2    0s

Cutting planes:
  Cover: 3
  Implied bound: 3
  Clique: 6
  MIR: 5
  GUB cover: 7

Explored 24 nodes (342 simplex iterations) in 0.11 seconds
Thread count was 4 (of 4 available processors)

Optimal solution found (tolerance 1.00e-04)
Best objective 3.195110000000e+07, best bound 3.195110000000e+07, gap 0.0%
k_c1	40000.0
k_c2	50000.0
k_c3	1000000.0
k_c4	960000.0
k_c5	40000.0
k_c6	20000.0
k_c7	80000.0
k_c8	59999.99999999994
k_dN	-0.0
o_1	-0.0
o_2	-0.0
o_3	-0.0
o_4	-0.0
o_5	-0.0
o_6	-0.0
o_7	0.0
o_8	0.0
p_1	0.0
p_2	0.0
p_3	-0.0
p_4	-0.0
p_5	0.0
p_6	-0.0
p_7	0.0
p_8	0.0
phi_c1	4282.000000000015
phi_c2	25113.00000000002
phi_c3	43016.0
phi_c4	41517.0
phi_c5	17601.000000000015
phi_c6	21326.000000000015
phi_c7	17274.000000000015
phi_c8	21206.999999999978
phi_d0	50000.0
phi_dN	-0.0
tauD_c1	400000.0
tauD_c2	250000.0
tauD_c3	101850.0
tauD_c4	147450.0
tauD_c5	700000.0
tauD_c6	450000.0
tauD_c7	250000.0
tauD_c8	250000.0
tauD_d0	-0.0
tauD_dN	1000000.0
tauS_c1	-0.0
tauS_c2	-0.0
tauS_c3	-0.0
tauS_c4	-0.0
tauS_c5	-0.0
tauS_c6	-0.0
tauS_c7	-0.0
tauS_c8	0.0
tauS_d0	-0.0
tauS_dN	-0.0
x_c1_dN	1.0
x_c2_c6	1.0
x_c3_c4	1.0
x_c4_c7	1.0
x_c5_dN	1.0
x_c6_dN	1.0
x_c7_c1	1.0
x_c8_c5	1.0
x_d0_c2	1.0
x_d0_c3	1.0
x_d0_c8	1.0
